HUN,8,6,827
1,16,3,14,0,21,4,5,5,21,2,12
2,30,1,11,3,17,4,14,5,8,0,18
5,8,1,8,0,25,3,4,2,8,4,18
4,25,3,2,2,17,1,2,5,20,0,2
5,24,0,28,3,5,2,4,4,12,1,26
0,8,4,20,2,5,3,6,5,18,1,12
3,13,1,4,2,11,0,25,5,12,4,13
0,9,4,19,5,2,1,17,2,24,3,5
